Route #1: 1 24 52 21 43 67 69 58 17
Route #2: 72 38 56 47 65 49 63 2
Route #3: 27 5 30 70 37 75
Route #4: 29 73 32 76 7 57
Route #5: 8 71 22 34 12 15 51
Route #6: 45 46 31 3 20 54 62
Route #7: 28 74 39 48 13 61 50
Route #8: 9 19 33 55 35 59 4 36 14 41
Route #9: 6 60 66 16 18 68 10 25 42
Route #10: 53 40 64 11 26 44 23 77
Cost 1261